Traveling Salesman Problem/TSP_generados/Aleatorio1621103408_13.tsp
NAME: Aleatorio1621103408_13.tsp
COMMENT: Randomly generated scenario
TYPE: TSP
DIMENSION: 13
EDGE_WEIGHT_TYPE: ATT
NODE_COORD_SECTION
1 23.64 7.55
2 17.5 0.87
3 19.39 29.34
4 3.12 30.11
5 27.57 11.62
6 28.53 17.11
7 32.64 20.49
8 5.78 11.73
9 42.17 33.55
10 6.48 18.59
11 12.5 12.85
12 20.24 26.1
13 2.11 10.1
