Traveling Salesman Problem/TSP_generados/Aleatorio1621103408_13.opt.tour
NAME: Aleatorio1621103408_13.opt.tour
COMMENT: Optimal solution for Aleatorio1621103408_13 (129.95023350278538)
TYPE: TOUR
DIMENSION: 13
TOUR_SECTION
1 2 11 8 13 10 4 3 12 9 7 6 5
-1
EOF
